NAME : single.3068.tour
COMMENT : Length = 3068
COMMENT : Found by LKH [Keld Helsgaun] Thu Mar 18 21:51:59 2021
TYPE : TOUR
DIMENSION : 30
TOUR_SECTION
1
23
25
26
20
29
28
27
24
22
21
30
5
15
16
9
10
12
13
14
17
4
19
7
8
11
18
3
2
6
-1
EOF
